
;this file is automatically generated: Tue Mar 02 15:25:50 CST 2021

;declarations generated

(declare-fun oclExcludes ( Int Int) Bool)
(declare-fun Cardinality ( Int) Int)
(declare-fun type_867a1f78_a01a_4b32_81b8_0514371bda28_Class0 ( Int) Bool)
(declare-fun type_867a1f78_a01a_4b32_81b8_0514371bda28_Class1 ( Int) Bool)
(declare-fun type_867a1f78_a01a_4b32_81b8_0514371bda28_Class2 ( Int) Bool)
(declare-fun type_867a1f78_a01a_4b32_81b8_0514371bda28_Class7 ( Int) Bool)
(declare-fun type_867a1f78_a01a_4b32_81b8_0514371bda28_Class8 ( Int) Bool)
(declare-fun type_867a1f78_a01a_4b32_81b8_0514371bda28_Class9 ( Int) Bool)
(declare-fun type_867a1f78_a01a_4b32_81b8_0514371bda28_Class3 ( Int) Bool)
(declare-fun type_867a1f78_a01a_4b32_81b8_0514371bda28_Class4 ( Int) Bool)
(declare-fun type_867a1f78_a01a_4b32_81b8_0514371bda28_Class5 ( Int) Bool)
(declare-fun type_867a1f78_a01a_4b32_81b8_0514371bda28_Class6 ( Int) Bool)
(declare-fun obj_15a27bac_e7b2_4dec_aeef_44b56f5abeeb ( Int) Int)
(declare-fun oclSelect ( Int Bool) Int)
(declare-fun type_867a1f78_a01a_4b32_81b8_0514371bda28_Class50 ( Int) Bool)
(declare-fun type_867a1f78_a01a_4b32_81b8_0514371bda28_Class51 ( Int) Bool)
(declare-fun type_867a1f78_a01a_4b32_81b8_0514371bda28_Class54 ( Int) Bool)
(declare-fun type_867a1f78_a01a_4b32_81b8_0514371bda28_Class55 ( Int) Bool)
(declare-fun type_867a1f78_a01a_4b32_81b8_0514371bda28_Class52 ( Int) Bool)
(declare-fun type_867a1f78_a01a_4b32_81b8_0514371bda28_Class53 ( Int) Bool)
(declare-fun type_867a1f78_a01a_4b32_81b8_0514371bda28_Class49 ( Int) Bool)
(declare-fun type_867a1f78_a01a_4b32_81b8_0514371bda28_Class40 ( Int) Bool)
(declare-fun type_867a1f78_a01a_4b32_81b8_0514371bda28_Class43 ( Int) Bool)
(declare-fun type_867a1f78_a01a_4b32_81b8_0514371bda28_Class44 ( Int) Bool)
(declare-fun type_867a1f78_a01a_4b32_81b8_0514371bda28_Class41 ( Int) Bool)
(declare-fun type_867a1f78_a01a_4b32_81b8_0514371bda28_Class42 ( Int) Bool)
(declare-fun type_867a1f78_a01a_4b32_81b8_0514371bda28_Class47 ( Int) Bool)
(declare-fun type_867a1f78_a01a_4b32_81b8_0514371bda28_Class48 ( Int) Bool)
(declare-fun type_867a1f78_a01a_4b32_81b8_0514371bda28_Class45 ( Int) Bool)
(declare-fun Enum0 ( Int) Int)
(declare-fun type_867a1f78_a01a_4b32_81b8_0514371bda28_Class46 ( Int) Bool)
(declare-fun Enum1 ( Int) Int)
(declare-fun Enum2 ( Int) Int)
(declare-fun type_867a1f78_a01a_4b32_81b8_0514371bda28_Class38 ( Int) Bool)
(declare-fun type_867a1f78_a01a_4b32_81b8_0514371bda28_Class39 ( Int) Bool)
(declare-fun type_867a1f78_a01a_4b32_81b8_0514371bda28_Class32 ( Int) Bool)
(declare-fun type_867a1f78_a01a_4b32_81b8_0514371bda28_Class33 ( Int) Bool)
(declare-fun type_867a1f78_a01a_4b32_81b8_0514371bda28_Class30 ( Int) Bool)
(declare-fun type_867a1f78_a01a_4b32_81b8_0514371bda28_Class31 ( Int) Bool)
(declare-fun type_867a1f78_a01a_4b32_81b8_0514371bda28_Class36 ( Int) Bool)
(declare-fun type_867a1f78_a01a_4b32_81b8_0514371bda28_Class37 ( Int) Bool)
(declare-fun type_867a1f78_a01a_4b32_81b8_0514371bda28_Class34 ( Int) Bool)
(declare-fun type_867a1f78_a01a_4b32_81b8_0514371bda28_Class35 ( Int) Bool)
(declare-fun type_867a1f78_a01a_4b32_81b8_0514371bda28_Class29 ( Int) Bool)
(declare-fun type_867a1f78_a01a_4b32_81b8_0514371bda28_Class27 ( Int) Bool)
(declare-fun type_867a1f78_a01a_4b32_81b8_0514371bda28_Class28 ( Int) Bool)
(declare-fun container_ ( Int) Int)
(declare-fun type_867a1f78_a01a_4b32_81b8_0514371bda28_Class21 ( Int) Bool)
(declare-fun type_867a1f78_a01a_4b32_81b8_0514371bda28_Class22 ( Int) Bool)
(declare-fun type_867a1f78_a01a_4b32_81b8_0514371bda28_Class20 ( Int) Bool)
(declare-fun type_867a1f78_a01a_4b32_81b8_0514371bda28_Class25 ( Int) Bool)
(declare-fun type_867a1f78_a01a_4b32_81b8_0514371bda28_Class26 ( Int) Bool)
(declare-fun type_867a1f78_a01a_4b32_81b8_0514371bda28_Class23 ( Int) Bool)
(declare-fun type_867a1f78_a01a_4b32_81b8_0514371bda28_Class24 ( Int) Bool)
(declare-fun type_867a1f78_a01a_4b32_81b8_0514371bda28_Class18 ( Int) Bool)
(declare-fun type_867a1f78_a01a_4b32_81b8_0514371bda28_Class19 ( Int) Bool)
(declare-fun type_867a1f78_a01a_4b32_81b8_0514371bda28_Class16 ( Int) Bool)
(declare-fun type_867a1f78_a01a_4b32_81b8_0514371bda28_Class17 ( Int) Bool)
(declare-fun type_867a1f78_a01a_4b32_81b8_0514371bda28_Class10 ( Int) Bool)
(declare-fun type_867a1f78_a01a_4b32_81b8_0514371bda28_Class11 ( Int) Bool)
(declare-fun type_867a1f78_a01a_4b32_81b8_0514371bda28_Class14 ( Int) Bool)
(declare-fun type_867a1f78_a01a_4b32_81b8_0514371bda28_Class15 ( Int) Bool)
(declare-fun type_867a1f78_a01a_4b32_81b8_0514371bda28_Class12 ( Int) Bool)
(declare-fun type_867a1f78_a01a_4b32_81b8_0514371bda28_Class13 ( Int) Bool)
(declare-fun oclIncludes ( Int Int) Bool)
(declare-fun ObjAt ( Int Int) Int)

;formula(s) generated
(assert (forall ((p Int)) (=> ( type_867a1f78_a01a_4b32_81b8_0514371bda28_Class31 p )  (and (>= ( Enum2 ( obj_15a27bac_e7b2_4dec_aeef_44b56f5abeeb p )  )  0) (<= ( Enum2 ( obj_15a27bac_e7b2_4dec_aeef_44b56f5abeeb p )  )  6)))))
(assert (! (forall ((v Int)) (=> (and (and (and (and (and ( type_867a1f78_a01a_4b32_81b8_0514371bda28_Class31 v )  ( type_867a1f78_a01a_4b32_81b8_0514371bda28_Class45 v ) ) ( type_867a1f78_a01a_4b32_81b8_0514371bda28_Class12 v ) ) ( type_867a1f78_a01a_4b32_81b8_0514371bda28_Class33 v ) ) ( type_867a1f78_a01a_4b32_81b8_0514371bda28_Class22 v ) ) ( type_867a1f78_a01a_4b32_81b8_0514371bda28_Class39 v ) ) (not (= ( Enum2 ( obj_15a27bac_e7b2_4dec_aeef_44b56f5abeeb v )  )  2) ))):named l0))
(assert (! (exists ((o Int)) ( type_867a1f78_a01a_4b32_81b8_0514371bda28_Class0 ( obj_15a27bac_e7b2_4dec_aeef_44b56f5abeeb o )  ) ):named c0))
(assert (! (exists ((o Int)) (and (and (and (and (and ( type_867a1f78_a01a_4b32_81b8_0514371bda28_Class1 ( obj_15a27bac_e7b2_4dec_aeef_44b56f5abeeb o )  )  ( type_867a1f78_a01a_4b32_81b8_0514371bda28_Class45 ( obj_15a27bac_e7b2_4dec_aeef_44b56f5abeeb o )  ) ) ( type_867a1f78_a01a_4b32_81b8_0514371bda28_Class12 ( obj_15a27bac_e7b2_4dec_aeef_44b56f5abeeb o )  ) ) ( type_867a1f78_a01a_4b32_81b8_0514371bda28_Class33 ( obj_15a27bac_e7b2_4dec_aeef_44b56f5abeeb o )  ) ) ( type_867a1f78_a01a_4b32_81b8_0514371bda28_Class22 ( obj_15a27bac_e7b2_4dec_aeef_44b56f5abeeb o )  ) ) ( type_867a1f78_a01a_4b32_81b8_0514371bda28_Class39 ( obj_15a27bac_e7b2_4dec_aeef_44b56f5abeeb o )  ) )):named c1))
(assert (! (exists ((o Int)) (and (and (and (and (and (and (and (and (and ( type_867a1f78_a01a_4b32_81b8_0514371bda28_Class10 ( obj_15a27bac_e7b2_4dec_aeef_44b56f5abeeb o )  )  ( type_867a1f78_a01a_4b32_81b8_0514371bda28_Class45 ( obj_15a27bac_e7b2_4dec_aeef_44b56f5abeeb o )  ) ) ( type_867a1f78_a01a_4b32_81b8_0514371bda28_Class12 ( obj_15a27bac_e7b2_4dec_aeef_44b56f5abeeb o )  ) ) ( type_867a1f78_a01a_4b32_81b8_0514371bda28_Class55 ( obj_15a27bac_e7b2_4dec_aeef_44b56f5abeeb o )  ) ) ( type_867a1f78_a01a_4b32_81b8_0514371bda28_Class33 ( obj_15a27bac_e7b2_4dec_aeef_44b56f5abeeb o )  ) ) ( type_867a1f78_a01a_4b32_81b8_0514371bda28_Class22 ( obj_15a27bac_e7b2_4dec_aeef_44b56f5abeeb o )  ) ) ( type_867a1f78_a01a_4b32_81b8_0514371bda28_Class29 ( obj_15a27bac_e7b2_4dec_aeef_44b56f5abeeb o )  ) ) ( type_867a1f78_a01a_4b32_81b8_0514371bda28_Class39 ( obj_15a27bac_e7b2_4dec_aeef_44b56f5abeeb o )  ) ) ( type_867a1f78_a01a_4b32_81b8_0514371bda28_Class50 ( obj_15a27bac_e7b2_4dec_aeef_44b56f5abeeb o )  ) ) ( type_867a1f78_a01a_4b32_81b8_0514371bda28_Class41 ( obj_15a27bac_e7b2_4dec_aeef_44b56f5abeeb o )  ) )):named c2))
(assert (! (exists ((o Int)) ( type_867a1f78_a01a_4b32_81b8_0514371bda28_Class11 ( obj_15a27bac_e7b2_4dec_aeef_44b56f5abeeb o )  ) ):named c3))
(assert (! (exists ((o Int)) (and (and (and ( type_867a1f78_a01a_4b32_81b8_0514371bda28_Class12 ( obj_15a27bac_e7b2_4dec_aeef_44b56f5abeeb o )  )  ( type_867a1f78_a01a_4b32_81b8_0514371bda28_Class33 ( obj_15a27bac_e7b2_4dec_aeef_44b56f5abeeb o )  ) ) ( type_867a1f78_a01a_4b32_81b8_0514371bda28_Class22 ( obj_15a27bac_e7b2_4dec_aeef_44b56f5abeeb o )  ) ) ( type_867a1f78_a01a_4b32_81b8_0514371bda28_Class39 ( obj_15a27bac_e7b2_4dec_aeef_44b56f5abeeb o )  ) )):named c4))
(assert (! (exists ((o Int)) (and (and (and (and (and (and (and (and (and ( type_867a1f78_a01a_4b32_81b8_0514371bda28_Class13 ( obj_15a27bac_e7b2_4dec_aeef_44b56f5abeeb o )  )  ( type_867a1f78_a01a_4b32_81b8_0514371bda28_Class45 ( obj_15a27bac_e7b2_4dec_aeef_44b56f5abeeb o )  ) ) ( type_867a1f78_a01a_4b32_81b8_0514371bda28_Class12 ( obj_15a27bac_e7b2_4dec_aeef_44b56f5abeeb o )  ) ) ( type_867a1f78_a01a_4b32_81b8_0514371bda28_Class55 ( obj_15a27bac_e7b2_4dec_aeef_44b56f5abeeb o )  ) ) ( type_867a1f78_a01a_4b32_81b8_0514371bda28_Class33 ( obj_15a27bac_e7b2_4dec_aeef_44b56f5abeeb o )  ) ) ( type_867a1f78_a01a_4b32_81b8_0514371bda28_Class22 ( obj_15a27bac_e7b2_4dec_aeef_44b56f5abeeb o )  ) ) ( type_867a1f78_a01a_4b32_81b8_0514371bda28_Class29 ( obj_15a27bac_e7b2_4dec_aeef_44b56f5abeeb o )  ) ) ( type_867a1f78_a01a_4b32_81b8_0514371bda28_Class39 ( obj_15a27bac_e7b2_4dec_aeef_44b56f5abeeb o )  ) ) ( type_867a1f78_a01a_4b32_81b8_0514371bda28_Class50 ( obj_15a27bac_e7b2_4dec_aeef_44b56f5abeeb o )  ) ) ( type_867a1f78_a01a_4b32_81b8_0514371bda28_Class41 ( obj_15a27bac_e7b2_4dec_aeef_44b56f5abeeb o )  ) )):named c5))
(assert (! (exists ((o Int)) (and (and (and (and (and (and (and (and (and ( type_867a1f78_a01a_4b32_81b8_0514371bda28_Class14 ( obj_15a27bac_e7b2_4dec_aeef_44b56f5abeeb o )  )  ( type_867a1f78_a01a_4b32_81b8_0514371bda28_Class45 ( obj_15a27bac_e7b2_4dec_aeef_44b56f5abeeb o )  ) ) ( type_867a1f78_a01a_4b32_81b8_0514371bda28_Class12 ( obj_15a27bac_e7b2_4dec_aeef_44b56f5abeeb o )  ) ) ( type_867a1f78_a01a_4b32_81b8_0514371bda28_Class55 ( obj_15a27bac_e7b2_4dec_aeef_44b56f5abeeb o )  ) ) ( type_867a1f78_a01a_4b32_81b8_0514371bda28_Class33 ( obj_15a27bac_e7b2_4dec_aeef_44b56f5abeeb o )  ) ) ( type_867a1f78_a01a_4b32_81b8_0514371bda28_Class22 ( obj_15a27bac_e7b2_4dec_aeef_44b56f5abeeb o )  ) ) ( type_867a1f78_a01a_4b32_81b8_0514371bda28_Class29 ( obj_15a27bac_e7b2_4dec_aeef_44b56f5abeeb o )  ) ) ( type_867a1f78_a01a_4b32_81b8_0514371bda28_Class39 ( obj_15a27bac_e7b2_4dec_aeef_44b56f5abeeb o )  ) ) ( type_867a1f78_a01a_4b32_81b8_0514371bda28_Class50 ( obj_15a27bac_e7b2_4dec_aeef_44b56f5abeeb o )  ) ) ( type_867a1f78_a01a_4b32_81b8_0514371bda28_Class41 ( obj_15a27bac_e7b2_4dec_aeef_44b56f5abeeb o )  ) )):named c6))
(assert (! (exists ((o Int)) ( type_867a1f78_a01a_4b32_81b8_0514371bda28_Class15 ( obj_15a27bac_e7b2_4dec_aeef_44b56f5abeeb o )  ) ):named c7))
(assert (! (exists ((o Int)) (and (and (and (and (and ( type_867a1f78_a01a_4b32_81b8_0514371bda28_Class16 ( obj_15a27bac_e7b2_4dec_aeef_44b56f5abeeb o )  )  ( type_867a1f78_a01a_4b32_81b8_0514371bda28_Class45 ( obj_15a27bac_e7b2_4dec_aeef_44b56f5abeeb o )  ) ) ( type_867a1f78_a01a_4b32_81b8_0514371bda28_Class12 ( obj_15a27bac_e7b2_4dec_aeef_44b56f5abeeb o )  ) ) ( type_867a1f78_a01a_4b32_81b8_0514371bda28_Class33 ( obj_15a27bac_e7b2_4dec_aeef_44b56f5abeeb o )  ) ) ( type_867a1f78_a01a_4b32_81b8_0514371bda28_Class22 ( obj_15a27bac_e7b2_4dec_aeef_44b56f5abeeb o )  ) ) ( type_867a1f78_a01a_4b32_81b8_0514371bda28_Class39 ( obj_15a27bac_e7b2_4dec_aeef_44b56f5abeeb o )  ) )):named c8))
(assert (! (exists ((o Int)) ( type_867a1f78_a01a_4b32_81b8_0514371bda28_Class17 ( obj_15a27bac_e7b2_4dec_aeef_44b56f5abeeb o )  ) ):named c9))
(assert (! (exists ((o Int)) (and (and (and ( type_867a1f78_a01a_4b32_81b8_0514371bda28_Class18 ( obj_15a27bac_e7b2_4dec_aeef_44b56f5abeeb o )  )  ( type_867a1f78_a01a_4b32_81b8_0514371bda28_Class25 ( obj_15a27bac_e7b2_4dec_aeef_44b56f5abeeb o )  ) ) ( type_867a1f78_a01a_4b32_81b8_0514371bda28_Class24 ( obj_15a27bac_e7b2_4dec_aeef_44b56f5abeeb o )  ) ) ( type_867a1f78_a01a_4b32_81b8_0514371bda28_Class39 ( obj_15a27bac_e7b2_4dec_aeef_44b56f5abeeb o )  ) )):named c10))
(assert (! (exists ((o Int)) (and (and (and (and (and (and (and (and (and ( type_867a1f78_a01a_4b32_81b8_0514371bda28_Class19 ( obj_15a27bac_e7b2_4dec_aeef_44b56f5abeeb o )  )  ( type_867a1f78_a01a_4b32_81b8_0514371bda28_Class45 ( obj_15a27bac_e7b2_4dec_aeef_44b56f5abeeb o )  ) ) ( type_867a1f78_a01a_4b32_81b8_0514371bda28_Class12 ( obj_15a27bac_e7b2_4dec_aeef_44b56f5abeeb o )  ) ) ( type_867a1f78_a01a_4b32_81b8_0514371bda28_Class55 ( obj_15a27bac_e7b2_4dec_aeef_44b56f5abeeb o )  ) ) ( type_867a1f78_a01a_4b32_81b8_0514371bda28_Class33 ( obj_15a27bac_e7b2_4dec_aeef_44b56f5abeeb o )  ) ) ( type_867a1f78_a01a_4b32_81b8_0514371bda28_Class22 ( obj_15a27bac_e7b2_4dec_aeef_44b56f5abeeb o )  ) ) ( type_867a1f78_a01a_4b32_81b8_0514371bda28_Class29 ( obj_15a27bac_e7b2_4dec_aeef_44b56f5abeeb o )  ) ) ( type_867a1f78_a01a_4b32_81b8_0514371bda28_Class39 ( obj_15a27bac_e7b2_4dec_aeef_44b56f5abeeb o )  ) ) ( type_867a1f78_a01a_4b32_81b8_0514371bda28_Class50 ( obj_15a27bac_e7b2_4dec_aeef_44b56f5abeeb o )  ) ) ( type_867a1f78_a01a_4b32_81b8_0514371bda28_Class41 ( obj_15a27bac_e7b2_4dec_aeef_44b56f5abeeb o )  ) )):named c11))
(assert (! (exists ((o Int)) ( type_867a1f78_a01a_4b32_81b8_0514371bda28_Class2 ( obj_15a27bac_e7b2_4dec_aeef_44b56f5abeeb o )  ) ):named c12))
(assert (! (exists ((o Int)) ( type_867a1f78_a01a_4b32_81b8_0514371bda28_Class20 ( obj_15a27bac_e7b2_4dec_aeef_44b56f5abeeb o )  ) ):named c13))
(assert (! (exists ((o Int)) (and (and (and (and (and (and (and (and (and ( type_867a1f78_a01a_4b32_81b8_0514371bda28_Class21 ( obj_15a27bac_e7b2_4dec_aeef_44b56f5abeeb o )  )  ( type_867a1f78_a01a_4b32_81b8_0514371bda28_Class45 ( obj_15a27bac_e7b2_4dec_aeef_44b56f5abeeb o )  ) ) ( type_867a1f78_a01a_4b32_81b8_0514371bda28_Class12 ( obj_15a27bac_e7b2_4dec_aeef_44b56f5abeeb o )  ) ) ( type_867a1f78_a01a_4b32_81b8_0514371bda28_Class33 ( obj_15a27bac_e7b2_4dec_aeef_44b56f5abeeb o )  ) ) ( type_867a1f78_a01a_4b32_81b8_0514371bda28_Class22 ( obj_15a27bac_e7b2_4dec_aeef_44b56f5abeeb o )  ) ) ( type_867a1f78_a01a_4b32_81b8_0514371bda28_Class16 ( obj_15a27bac_e7b2_4dec_aeef_44b56f5abeeb o )  ) ) ( type_867a1f78_a01a_4b32_81b8_0514371bda28_Class29 ( obj_15a27bac_e7b2_4dec_aeef_44b56f5abeeb o )  ) ) ( type_867a1f78_a01a_4b32_81b8_0514371bda28_Class39 ( obj_15a27bac_e7b2_4dec_aeef_44b56f5abeeb o )  ) ) ( type_867a1f78_a01a_4b32_81b8_0514371bda28_Class41 ( obj_15a27bac_e7b2_4dec_aeef_44b56f5abeeb o )  ) ) ( type_867a1f78_a01a_4b32_81b8_0514371bda28_Class51 ( obj_15a27bac_e7b2_4dec_aeef_44b56f5abeeb o )  ) )):named c14))
(assert (! (exists ((o Int)) (and ( type_867a1f78_a01a_4b32_81b8_0514371bda28_Class22 ( obj_15a27bac_e7b2_4dec_aeef_44b56f5abeeb o )  )  ( type_867a1f78_a01a_4b32_81b8_0514371bda28_Class39 ( obj_15a27bac_e7b2_4dec_aeef_44b56f5abeeb o )  ) )):named c15))
(assert (! (exists ((o Int)) (and (and (and (and ( type_867a1f78_a01a_4b32_81b8_0514371bda28_Class23 ( obj_15a27bac_e7b2_4dec_aeef_44b56f5abeeb o )  )  ( type_867a1f78_a01a_4b32_81b8_0514371bda28_Class25 ( obj_15a27bac_e7b2_4dec_aeef_44b56f5abeeb o )  ) ) ( type_867a1f78_a01a_4b32_81b8_0514371bda28_Class24 ( obj_15a27bac_e7b2_4dec_aeef_44b56f5abeeb o )  ) ) ( type_867a1f78_a01a_4b32_81b8_0514371bda28_Class39 ( obj_15a27bac_e7b2_4dec_aeef_44b56f5abeeb o )  ) ) ( type_867a1f78_a01a_4b32_81b8_0514371bda28_Class5 ( obj_15a27bac_e7b2_4dec_aeef_44b56f5abeeb o )  ) )):named c16))
(assert (! (exists ((o Int)) (and (and ( type_867a1f78_a01a_4b32_81b8_0514371bda28_Class24 ( obj_15a27bac_e7b2_4dec_aeef_44b56f5abeeb o )  )  ( type_867a1f78_a01a_4b32_81b8_0514371bda28_Class25 ( obj_15a27bac_e7b2_4dec_aeef_44b56f5abeeb o )  ) ) ( type_867a1f78_a01a_4b32_81b8_0514371bda28_Class39 ( obj_15a27bac_e7b2_4dec_aeef_44b56f5abeeb o )  ) )):named c17))
(assert (! (exists ((o Int)) (and ( type_867a1f78_a01a_4b32_81b8_0514371bda28_Class25 ( obj_15a27bac_e7b2_4dec_aeef_44b56f5abeeb o )  )  ( type_867a1f78_a01a_4b32_81b8_0514371bda28_Class39 ( obj_15a27bac_e7b2_4dec_aeef_44b56f5abeeb o )  ) )):named c18))
(assert (! (exists ((o Int)) ( type_867a1f78_a01a_4b32_81b8_0514371bda28_Class26 ( obj_15a27bac_e7b2_4dec_aeef_44b56f5abeeb o )  ) ):named c19))
(assert (! (exists ((o Int)) ( type_867a1f78_a01a_4b32_81b8_0514371bda28_Class27 ( obj_15a27bac_e7b2_4dec_aeef_44b56f5abeeb o )  ) ):named c20))
(assert (! (exists ((o Int)) (and (and (and (and (and (and (and ( type_867a1f78_a01a_4b32_81b8_0514371bda28_Class28 ( obj_15a27bac_e7b2_4dec_aeef_44b56f5abeeb o )  )  ( type_867a1f78_a01a_4b32_81b8_0514371bda28_Class45 ( obj_15a27bac_e7b2_4dec_aeef_44b56f5abeeb o )  ) ) ( type_867a1f78_a01a_4b32_81b8_0514371bda28_Class12 ( obj_15a27bac_e7b2_4dec_aeef_44b56f5abeeb o )  ) ) ( type_867a1f78_a01a_4b32_81b8_0514371bda28_Class33 ( obj_15a27bac_e7b2_4dec_aeef_44b56f5abeeb o )  ) ) ( type_867a1f78_a01a_4b32_81b8_0514371bda28_Class22 ( obj_15a27bac_e7b2_4dec_aeef_44b56f5abeeb o )  ) ) ( type_867a1f78_a01a_4b32_81b8_0514371bda28_Class29 ( obj_15a27bac_e7b2_4dec_aeef_44b56f5abeeb o )  ) ) ( type_867a1f78_a01a_4b32_81b8_0514371bda28_Class39 ( obj_15a27bac_e7b2_4dec_aeef_44b56f5abeeb o )  ) ) ( type_867a1f78_a01a_4b32_81b8_0514371bda28_Class41 ( obj_15a27bac_e7b2_4dec_aeef_44b56f5abeeb o )  ) )):named c21))
(assert (! (exists ((o Int)) (and (and (and (and (and (and ( type_867a1f78_a01a_4b32_81b8_0514371bda28_Class29 ( obj_15a27bac_e7b2_4dec_aeef_44b56f5abeeb o )  )  ( type_867a1f78_a01a_4b32_81b8_0514371bda28_Class45 ( obj_15a27bac_e7b2_4dec_aeef_44b56f5abeeb o )  ) ) ( type_867a1f78_a01a_4b32_81b8_0514371bda28_Class12 ( obj_15a27bac_e7b2_4dec_aeef_44b56f5abeeb o )  ) ) ( type_867a1f78_a01a_4b32_81b8_0514371bda28_Class33 ( obj_15a27bac_e7b2_4dec_aeef_44b56f5abeeb o )  ) ) ( type_867a1f78_a01a_4b32_81b8_0514371bda28_Class22 ( obj_15a27bac_e7b2_4dec_aeef_44b56f5abeeb o )  ) ) ( type_867a1f78_a01a_4b32_81b8_0514371bda28_Class39 ( obj_15a27bac_e7b2_4dec_aeef_44b56f5abeeb o )  ) ) ( type_867a1f78_a01a_4b32_81b8_0514371bda28_Class41 ( obj_15a27bac_e7b2_4dec_aeef_44b56f5abeeb o )  ) )):named c22))
(assert (! (exists ((o Int)) (and (and (and ( type_867a1f78_a01a_4b32_81b8_0514371bda28_Class3 ( obj_15a27bac_e7b2_4dec_aeef_44b56f5abeeb o )  )  ( type_867a1f78_a01a_4b32_81b8_0514371bda28_Class25 ( obj_15a27bac_e7b2_4dec_aeef_44b56f5abeeb o )  ) ) ( type_867a1f78_a01a_4b32_81b8_0514371bda28_Class24 ( obj_15a27bac_e7b2_4dec_aeef_44b56f5abeeb o )  ) ) ( type_867a1f78_a01a_4b32_81b8_0514371bda28_Class39 ( obj_15a27bac_e7b2_4dec_aeef_44b56f5abeeb o )  ) )):named c23))
(assert (! (exists ((o Int)) (and ( type_867a1f78_a01a_4b32_81b8_0514371bda28_Class30 ( obj_15a27bac_e7b2_4dec_aeef_44b56f5abeeb o )  )  ( type_867a1f78_a01a_4b32_81b8_0514371bda28_Class39 ( obj_15a27bac_e7b2_4dec_aeef_44b56f5abeeb o )  ) )):named c24))
(assert (! (exists ((o Int)) (and (and (and (and (and ( type_867a1f78_a01a_4b32_81b8_0514371bda28_Class31 ( obj_15a27bac_e7b2_4dec_aeef_44b56f5abeeb o )  )  ( type_867a1f78_a01a_4b32_81b8_0514371bda28_Class45 ( obj_15a27bac_e7b2_4dec_aeef_44b56f5abeeb o )  ) ) ( type_867a1f78_a01a_4b32_81b8_0514371bda28_Class12 ( obj_15a27bac_e7b2_4dec_aeef_44b56f5abeeb o )  ) ) ( type_867a1f78_a01a_4b32_81b8_0514371bda28_Class33 ( obj_15a27bac_e7b2_4dec_aeef_44b56f5abeeb o )  ) ) ( type_867a1f78_a01a_4b32_81b8_0514371bda28_Class22 ( obj_15a27bac_e7b2_4dec_aeef_44b56f5abeeb o )  ) ) ( type_867a1f78_a01a_4b32_81b8_0514371bda28_Class39 ( obj_15a27bac_e7b2_4dec_aeef_44b56f5abeeb o )  ) )):named c25))
(assert (! (exists ((o Int)) ( type_867a1f78_a01a_4b32_81b8_0514371bda28_Class32 ( obj_15a27bac_e7b2_4dec_aeef_44b56f5abeeb o )  ) ):named c26))
(assert (! (exists ((o Int)) (and (and ( type_867a1f78_a01a_4b32_81b8_0514371bda28_Class33 ( obj_15a27bac_e7b2_4dec_aeef_44b56f5abeeb o )  )  ( type_867a1f78_a01a_4b32_81b8_0514371bda28_Class22 ( obj_15a27bac_e7b2_4dec_aeef_44b56f5abeeb o )  ) ) ( type_867a1f78_a01a_4b32_81b8_0514371bda28_Class39 ( obj_15a27bac_e7b2_4dec_aeef_44b56f5abeeb o )  ) )):named c27))
(assert (! (exists ((o Int)) (and (and (and ( type_867a1f78_a01a_4b32_81b8_0514371bda28_Class34 ( obj_15a27bac_e7b2_4dec_aeef_44b56f5abeeb o )  )  ( type_867a1f78_a01a_4b32_81b8_0514371bda28_Class25 ( obj_15a27bac_e7b2_4dec_aeef_44b56f5abeeb o )  ) ) ( type_867a1f78_a01a_4b32_81b8_0514371bda28_Class24 ( obj_15a27bac_e7b2_4dec_aeef_44b56f5abeeb o )  ) ) ( type_867a1f78_a01a_4b32_81b8_0514371bda28_Class39 ( obj_15a27bac_e7b2_4dec_aeef_44b56f5abeeb o )  ) )):named c28))
(assert (! (exists ((o Int)) (and (and ( type_867a1f78_a01a_4b32_81b8_0514371bda28_Class35 ( obj_15a27bac_e7b2_4dec_aeef_44b56f5abeeb o )  )  ( type_867a1f78_a01a_4b32_81b8_0514371bda28_Class39 ( obj_15a27bac_e7b2_4dec_aeef_44b56f5abeeb o )  ) ) ( type_867a1f78_a01a_4b32_81b8_0514371bda28_Class30 ( obj_15a27bac_e7b2_4dec_aeef_44b56f5abeeb o )  ) )):named c29))
(assert (! (exists ((o Int)) ( type_867a1f78_a01a_4b32_81b8_0514371bda28_Class36 ( obj_15a27bac_e7b2_4dec_aeef_44b56f5abeeb o )  ) ):named c30))
(assert (! (exists ((o Int)) ( type_867a1f78_a01a_4b32_81b8_0514371bda28_Class37 ( obj_15a27bac_e7b2_4dec_aeef_44b56f5abeeb o )  ) ):named c31))
(assert (! (exists ((o Int)) ( type_867a1f78_a01a_4b32_81b8_0514371bda28_Class38 ( obj_15a27bac_e7b2_4dec_aeef_44b56f5abeeb o )  ) ):named c32))
(assert (! (exists ((o Int)) ( type_867a1f78_a01a_4b32_81b8_0514371bda28_Class39 ( obj_15a27bac_e7b2_4dec_aeef_44b56f5abeeb o )  ) ):named c33))
(assert (! (exists ((o Int)) ( type_867a1f78_a01a_4b32_81b8_0514371bda28_Class4 ( obj_15a27bac_e7b2_4dec_aeef_44b56f5abeeb o )  ) ):named c34))
(assert (! (exists ((o Int)) (and (and (and (and (and (and (and (and (and ( type_867a1f78_a01a_4b32_81b8_0514371bda28_Class40 ( obj_15a27bac_e7b2_4dec_aeef_44b56f5abeeb o )  )  ( type_867a1f78_a01a_4b32_81b8_0514371bda28_Class45 ( obj_15a27bac_e7b2_4dec_aeef_44b56f5abeeb o )  ) ) ( type_867a1f78_a01a_4b32_81b8_0514371bda28_Class12 ( obj_15a27bac_e7b2_4dec_aeef_44b56f5abeeb o )  ) ) ( type_867a1f78_a01a_4b32_81b8_0514371bda28_Class55 ( obj_15a27bac_e7b2_4dec_aeef_44b56f5abeeb o )  ) ) ( type_867a1f78_a01a_4b32_81b8_0514371bda28_Class33 ( obj_15a27bac_e7b2_4dec_aeef_44b56f5abeeb o )  ) ) ( type_867a1f78_a01a_4b32_81b8_0514371bda28_Class22 ( obj_15a27bac_e7b2_4dec_aeef_44b56f5abeeb o )  ) ) ( type_867a1f78_a01a_4b32_81b8_0514371bda28_Class29 ( obj_15a27bac_e7b2_4dec_aeef_44b56f5abeeb o )  ) ) ( type_867a1f78_a01a_4b32_81b8_0514371bda28_Class39 ( obj_15a27bac_e7b2_4dec_aeef_44b56f5abeeb o )  ) ) ( type_867a1f78_a01a_4b32_81b8_0514371bda28_Class50 ( obj_15a27bac_e7b2_4dec_aeef_44b56f5abeeb o )  ) ) ( type_867a1f78_a01a_4b32_81b8_0514371bda28_Class41 ( obj_15a27bac_e7b2_4dec_aeef_44b56f5abeeb o )  ) )):named c35))
(assert (! (exists ((o Int)) (and (and (and (and (and ( type_867a1f78_a01a_4b32_81b8_0514371bda28_Class41 ( obj_15a27bac_e7b2_4dec_aeef_44b56f5abeeb o )  )  ( type_867a1f78_a01a_4b32_81b8_0514371bda28_Class45 ( obj_15a27bac_e7b2_4dec_aeef_44b56f5abeeb o )  ) ) ( type_867a1f78_a01a_4b32_81b8_0514371bda28_Class12 ( obj_15a27bac_e7b2_4dec_aeef_44b56f5abeeb o )  ) ) ( type_867a1f78_a01a_4b32_81b8_0514371bda28_Class33 ( obj_15a27bac_e7b2_4dec_aeef_44b56f5abeeb o )  ) ) ( type_867a1f78_a01a_4b32_81b8_0514371bda28_Class22 ( obj_15a27bac_e7b2_4dec_aeef_44b56f5abeeb o )  ) ) ( type_867a1f78_a01a_4b32_81b8_0514371bda28_Class39 ( obj_15a27bac_e7b2_4dec_aeef_44b56f5abeeb o )  ) )):named c36))
(assert (! (exists ((o Int)) (and ( type_867a1f78_a01a_4b32_81b8_0514371bda28_Class42 ( obj_15a27bac_e7b2_4dec_aeef_44b56f5abeeb o )  )  ( type_867a1f78_a01a_4b32_81b8_0514371bda28_Class39 ( obj_15a27bac_e7b2_4dec_aeef_44b56f5abeeb o )  ) )):named c37))
(assert (! (exists ((o Int)) ( type_867a1f78_a01a_4b32_81b8_0514371bda28_Class43 ( obj_15a27bac_e7b2_4dec_aeef_44b56f5abeeb o )  ) ):named c38))
(assert (! (exists ((o Int)) (and (and (and (and (and (and (and ( type_867a1f78_a01a_4b32_81b8_0514371bda28_Class44 ( obj_15a27bac_e7b2_4dec_aeef_44b56f5abeeb o )  )  ( type_867a1f78_a01a_4b32_81b8_0514371bda28_Class45 ( obj_15a27bac_e7b2_4dec_aeef_44b56f5abeeb o )  ) ) ( type_867a1f78_a01a_4b32_81b8_0514371bda28_Class12 ( obj_15a27bac_e7b2_4dec_aeef_44b56f5abeeb o )  ) ) ( type_867a1f78_a01a_4b32_81b8_0514371bda28_Class33 ( obj_15a27bac_e7b2_4dec_aeef_44b56f5abeeb o )  ) ) ( type_867a1f78_a01a_4b32_81b8_0514371bda28_Class22 ( obj_15a27bac_e7b2_4dec_aeef_44b56f5abeeb o )  ) ) ( type_867a1f78_a01a_4b32_81b8_0514371bda28_Class29 ( obj_15a27bac_e7b2_4dec_aeef_44b56f5abeeb o )  ) ) ( type_867a1f78_a01a_4b32_81b8_0514371bda28_Class39 ( obj_15a27bac_e7b2_4dec_aeef_44b56f5abeeb o )  ) ) ( type_867a1f78_a01a_4b32_81b8_0514371bda28_Class41 ( obj_15a27bac_e7b2_4dec_aeef_44b56f5abeeb o )  ) )):named c39))
(assert (! (exists ((o Int)) (and (and (and (and ( type_867a1f78_a01a_4b32_81b8_0514371bda28_Class45 ( obj_15a27bac_e7b2_4dec_aeef_44b56f5abeeb o )  )  ( type_867a1f78_a01a_4b32_81b8_0514371bda28_Class12 ( obj_15a27bac_e7b2_4dec_aeef_44b56f5abeeb o )  ) ) ( type_867a1f78_a01a_4b32_81b8_0514371bda28_Class33 ( obj_15a27bac_e7b2_4dec_aeef_44b56f5abeeb o )  ) ) ( type_867a1f78_a01a_4b32_81b8_0514371bda28_Class22 ( obj_15a27bac_e7b2_4dec_aeef_44b56f5abeeb o )  ) ) ( type_867a1f78_a01a_4b32_81b8_0514371bda28_Class39 ( obj_15a27bac_e7b2_4dec_aeef_44b56f5abeeb o )  ) )):named c40))
(assert (! (exists ((o Int)) (and (and ( type_867a1f78_a01a_4b32_81b8_0514371bda28_Class46 ( obj_15a27bac_e7b2_4dec_aeef_44b56f5abeeb o )  )  ( type_867a1f78_a01a_4b32_81b8_0514371bda28_Class39 ( obj_15a27bac_e7b2_4dec_aeef_44b56f5abeeb o )  ) ) ( type_867a1f78_a01a_4b32_81b8_0514371bda28_Class5 ( obj_15a27bac_e7b2_4dec_aeef_44b56f5abeeb o )  ) )):named c41))
(assert (! (exists ((o Int)) ( type_867a1f78_a01a_4b32_81b8_0514371bda28_Class47 ( obj_15a27bac_e7b2_4dec_aeef_44b56f5abeeb o )  ) ):named c42))
(assert (! (exists ((o Int)) (and (and (and (and (and (and (and (and (and ( type_867a1f78_a01a_4b32_81b8_0514371bda28_Class48 ( obj_15a27bac_e7b2_4dec_aeef_44b56f5abeeb o )  )  ( type_867a1f78_a01a_4b32_81b8_0514371bda28_Class45 ( obj_15a27bac_e7b2_4dec_aeef_44b56f5abeeb o )  ) ) ( type_867a1f78_a01a_4b32_81b8_0514371bda28_Class12 ( obj_15a27bac_e7b2_4dec_aeef_44b56f5abeeb o )  ) ) ( type_867a1f78_a01a_4b32_81b8_0514371bda28_Class55 ( obj_15a27bac_e7b2_4dec_aeef_44b56f5abeeb o )  ) ) ( type_867a1f78_a01a_4b32_81b8_0514371bda28_Class33 ( obj_15a27bac_e7b2_4dec_aeef_44b56f5abeeb o )  ) ) ( type_867a1f78_a01a_4b32_81b8_0514371bda28_Class22 ( obj_15a27bac_e7b2_4dec_aeef_44b56f5abeeb o )  ) ) ( type_867a1f78_a01a_4b32_81b8_0514371bda28_Class29 ( obj_15a27bac_e7b2_4dec_aeef_44b56f5abeeb o )  ) ) ( type_867a1f78_a01a_4b32_81b8_0514371bda28_Class39 ( obj_15a27bac_e7b2_4dec_aeef_44b56f5abeeb o )  ) ) ( type_867a1f78_a01a_4b32_81b8_0514371bda28_Class50 ( obj_15a27bac_e7b2_4dec_aeef_44b56f5abeeb o )  ) ) ( type_867a1f78_a01a_4b32_81b8_0514371bda28_Class41 ( obj_15a27bac_e7b2_4dec_aeef_44b56f5abeeb o )  ) )):named c43))
(assert (! (exists ((o Int)) (and (and (and (and (and (and (and (and (and ( type_867a1f78_a01a_4b32_81b8_0514371bda28_Class49 ( obj_15a27bac_e7b2_4dec_aeef_44b56f5abeeb o )  )  ( type_867a1f78_a01a_4b32_81b8_0514371bda28_Class45 ( obj_15a27bac_e7b2_4dec_aeef_44b56f5abeeb o )  ) ) ( type_867a1f78_a01a_4b32_81b8_0514371bda28_Class12 ( obj_15a27bac_e7b2_4dec_aeef_44b56f5abeeb o )  ) ) ( type_867a1f78_a01a_4b32_81b8_0514371bda28_Class55 ( obj_15a27bac_e7b2_4dec_aeef_44b56f5abeeb o )  ) ) ( type_867a1f78_a01a_4b32_81b8_0514371bda28_Class33 ( obj_15a27bac_e7b2_4dec_aeef_44b56f5abeeb o )  ) ) ( type_867a1f78_a01a_4b32_81b8_0514371bda28_Class22 ( obj_15a27bac_e7b2_4dec_aeef_44b56f5abeeb o )  ) ) ( type_867a1f78_a01a_4b32_81b8_0514371bda28_Class29 ( obj_15a27bac_e7b2_4dec_aeef_44b56f5abeeb o )  ) ) ( type_867a1f78_a01a_4b32_81b8_0514371bda28_Class39 ( obj_15a27bac_e7b2_4dec_aeef_44b56f5abeeb o )  ) ) ( type_867a1f78_a01a_4b32_81b8_0514371bda28_Class50 ( obj_15a27bac_e7b2_4dec_aeef_44b56f5abeeb o )  ) ) ( type_867a1f78_a01a_4b32_81b8_0514371bda28_Class41 ( obj_15a27bac_e7b2_4dec_aeef_44b56f5abeeb o )  ) )):named c44))
(assert (! (exists ((o Int)) (and ( type_867a1f78_a01a_4b32_81b8_0514371bda28_Class5 ( obj_15a27bac_e7b2_4dec_aeef_44b56f5abeeb o )  )  ( type_867a1f78_a01a_4b32_81b8_0514371bda28_Class39 ( obj_15a27bac_e7b2_4dec_aeef_44b56f5abeeb o )  ) )):named c45))
(assert (! (exists ((o Int)) (and (and (and (and (and (and (and (and ( type_867a1f78_a01a_4b32_81b8_0514371bda28_Class50 ( obj_15a27bac_e7b2_4dec_aeef_44b56f5abeeb o )  )  ( type_867a1f78_a01a_4b32_81b8_0514371bda28_Class45 ( obj_15a27bac_e7b2_4dec_aeef_44b56f5abeeb o )  ) ) ( type_867a1f78_a01a_4b32_81b8_0514371bda28_Class12 ( obj_15a27bac_e7b2_4dec_aeef_44b56f5abeeb o )  ) ) ( type_867a1f78_a01a_4b32_81b8_0514371bda28_Class55 ( obj_15a27bac_e7b2_4dec_aeef_44b56f5abeeb o )  ) ) ( type_867a1f78_a01a_4b32_81b8_0514371bda28_Class33 ( obj_15a27bac_e7b2_4dec_aeef_44b56f5abeeb o )  ) ) ( type_867a1f78_a01a_4b32_81b8_0514371bda28_Class22 ( obj_15a27bac_e7b2_4dec_aeef_44b56f5abeeb o )  ) ) ( type_867a1f78_a01a_4b32_81b8_0514371bda28_Class29 ( obj_15a27bac_e7b2_4dec_aeef_44b56f5abeeb o )  ) ) ( type_867a1f78_a01a_4b32_81b8_0514371bda28_Class39 ( obj_15a27bac_e7b2_4dec_aeef_44b56f5abeeb o )  ) ) ( type_867a1f78_a01a_4b32_81b8_0514371bda28_Class41 ( obj_15a27bac_e7b2_4dec_aeef_44b56f5abeeb o )  ) )):named c46))
(assert (! (exists ((o Int)) (and (and (and (and (and (and ( type_867a1f78_a01a_4b32_81b8_0514371bda28_Class51 ( obj_15a27bac_e7b2_4dec_aeef_44b56f5abeeb o )  )  ( type_867a1f78_a01a_4b32_81b8_0514371bda28_Class45 ( obj_15a27bac_e7b2_4dec_aeef_44b56f5abeeb o )  ) ) ( type_867a1f78_a01a_4b32_81b8_0514371bda28_Class12 ( obj_15a27bac_e7b2_4dec_aeef_44b56f5abeeb o )  ) ) ( type_867a1f78_a01a_4b32_81b8_0514371bda28_Class33 ( obj_15a27bac_e7b2_4dec_aeef_44b56f5abeeb o )  ) ) ( type_867a1f78_a01a_4b32_81b8_0514371bda28_Class22 ( obj_15a27bac_e7b2_4dec_aeef_44b56f5abeeb o )  ) ) ( type_867a1f78_a01a_4b32_81b8_0514371bda28_Class16 ( obj_15a27bac_e7b2_4dec_aeef_44b56f5abeeb o )  ) ) ( type_867a1f78_a01a_4b32_81b8_0514371bda28_Class39 ( obj_15a27bac_e7b2_4dec_aeef_44b56f5abeeb o )  ) )):named c47))
(assert (! (exists ((o Int)) (and (and (and (and (and ( type_867a1f78_a01a_4b32_81b8_0514371bda28_Class52 ( obj_15a27bac_e7b2_4dec_aeef_44b56f5abeeb o )  )  ( type_867a1f78_a01a_4b32_81b8_0514371bda28_Class45 ( obj_15a27bac_e7b2_4dec_aeef_44b56f5abeeb o )  ) ) ( type_867a1f78_a01a_4b32_81b8_0514371bda28_Class12 ( obj_15a27bac_e7b2_4dec_aeef_44b56f5abeeb o )  ) ) ( type_867a1f78_a01a_4b32_81b8_0514371bda28_Class33 ( obj_15a27bac_e7b2_4dec_aeef_44b56f5abeeb o )  ) ) ( type_867a1f78_a01a_4b32_81b8_0514371bda28_Class22 ( obj_15a27bac_e7b2_4dec_aeef_44b56f5abeeb o )  ) ) ( type_867a1f78_a01a_4b32_81b8_0514371bda28_Class39 ( obj_15a27bac_e7b2_4dec_aeef_44b56f5abeeb o )  ) )):named c48))
(assert (! (exists ((o Int)) ( type_867a1f78_a01a_4b32_81b8_0514371bda28_Class53 ( obj_15a27bac_e7b2_4dec_aeef_44b56f5abeeb o )  ) ):named c49))
(assert (! (exists ((o Int)) ( type_867a1f78_a01a_4b32_81b8_0514371bda28_Class54 ( obj_15a27bac_e7b2_4dec_aeef_44b56f5abeeb o )  ) ):named c50))
(assert (! (exists ((o Int)) (and (and (and (and (and (and (and ( type_867a1f78_a01a_4b32_81b8_0514371bda28_Class55 ( obj_15a27bac_e7b2_4dec_aeef_44b56f5abeeb o )  )  ( type_867a1f78_a01a_4b32_81b8_0514371bda28_Class45 ( obj_15a27bac_e7b2_4dec_aeef_44b56f5abeeb o )  ) ) ( type_867a1f78_a01a_4b32_81b8_0514371bda28_Class12 ( obj_15a27bac_e7b2_4dec_aeef_44b56f5abeeb o )  ) ) ( type_867a1f78_a01a_4b32_81b8_0514371bda28_Class33 ( obj_15a27bac_e7b2_4dec_aeef_44b56f5abeeb o )  ) ) ( type_867a1f78_a01a_4b32_81b8_0514371bda28_Class22 ( obj_15a27bac_e7b2_4dec_aeef_44b56f5abeeb o )  ) ) ( type_867a1f78_a01a_4b32_81b8_0514371bda28_Class29 ( obj_15a27bac_e7b2_4dec_aeef_44b56f5abeeb o )  ) ) ( type_867a1f78_a01a_4b32_81b8_0514371bda28_Class39 ( obj_15a27bac_e7b2_4dec_aeef_44b56f5abeeb o )  ) ) ( type_867a1f78_a01a_4b32_81b8_0514371bda28_Class41 ( obj_15a27bac_e7b2_4dec_aeef_44b56f5abeeb o )  ) )):named c51))
(assert (! (exists ((o Int)) ( type_867a1f78_a01a_4b32_81b8_0514371bda28_Class6 ( obj_15a27bac_e7b2_4dec_aeef_44b56f5abeeb o )  ) ):named c52))
(assert (! (exists ((o Int)) (and (and (and (and (and (and (and (and (and ( type_867a1f78_a01a_4b32_81b8_0514371bda28_Class7 ( obj_15a27bac_e7b2_4dec_aeef_44b56f5abeeb o )  )  ( type_867a1f78_a01a_4b32_81b8_0514371bda28_Class45 ( obj_15a27bac_e7b2_4dec_aeef_44b56f5abeeb o )  ) ) ( type_867a1f78_a01a_4b32_81b8_0514371bda28_Class12 ( obj_15a27bac_e7b2_4dec_aeef_44b56f5abeeb o )  ) ) ( type_867a1f78_a01a_4b32_81b8_0514371bda28_Class55 ( obj_15a27bac_e7b2_4dec_aeef_44b56f5abeeb o )  ) ) ( type_867a1f78_a01a_4b32_81b8_0514371bda28_Class33 ( obj_15a27bac_e7b2_4dec_aeef_44b56f5abeeb o )  ) ) ( type_867a1f78_a01a_4b32_81b8_0514371bda28_Class22 ( obj_15a27bac_e7b2_4dec_aeef_44b56f5abeeb o )  ) ) ( type_867a1f78_a01a_4b32_81b8_0514371bda28_Class29 ( obj_15a27bac_e7b2_4dec_aeef_44b56f5abeeb o )  ) ) ( type_867a1f78_a01a_4b32_81b8_0514371bda28_Class39 ( obj_15a27bac_e7b2_4dec_aeef_44b56f5abeeb o )  ) ) ( type_867a1f78_a01a_4b32_81b8_0514371bda28_Class50 ( obj_15a27bac_e7b2_4dec_aeef_44b56f5abeeb o )  ) ) ( type_867a1f78_a01a_4b32_81b8_0514371bda28_Class41 ( obj_15a27bac_e7b2_4dec_aeef_44b56f5abeeb o )  ) )):named c53))
(assert (! (exists ((o Int)) (and ( type_867a1f78_a01a_4b32_81b8_0514371bda28_Class8 ( obj_15a27bac_e7b2_4dec_aeef_44b56f5abeeb o )  )  ( type_867a1f78_a01a_4b32_81b8_0514371bda28_Class39 ( obj_15a27bac_e7b2_4dec_aeef_44b56f5abeeb o )  ) )):named c54))
(assert (! (exists ((o Int)) ( type_867a1f78_a01a_4b32_81b8_0514371bda28_Class9 ( obj_15a27bac_e7b2_4dec_aeef_44b56f5abeeb o )  ) ):named c55))

 ;end of formula 